NAME : single_frontier
TYPE : ATSP
DIMENSION : 13
EDGE_WEIGHT_TYPE : EXPLICIT
EDGE_WEIGHT_FORMAT : FULL_MATRIX
EDGE_WEIGHT_SECTION
0 616 584 4473 568 4456 498 493 439 350 423 266 227 
0 0 50272 100 142 356 279 290 487 50506 576 50621 50674 
0 50272 0 50271 50302 126 337 345 546 432 50616 50649 50703 
0 100 50271 0 46 252 179 190 386 460 475 50521 50575 
0 142 50302 46 0 50209 145 155 328 50388 424 50479 50532 
0 356 126 252 50209 0 213 222 418 356 528 50525 50580 
0 279 337 179 145 213 0 11 230 269 322 50349 478 
0 290 345 190 155 222 11 0 221 50240 310 421 50392 
0 487 546 386 328 418 230 221 0 213 118 218 266 
0 50506 432 460 50388 356 269 50240 213 0 339 50267 397 
0 576 50616 475 424 528 322 310 118 339 0 137 188 
0 50621 50649 50521 50479 50525 50349 421 218 50267 137 0 55 
0 50674 50703 50575 50532 50580 478 50392 266 397 188 55 0 
EOF